<instance format="XCSP3" type="DisCSP">
  <variables>
    <var id="w"> red green blue </var>
    <var id="x"> red green blue </var>
    <var id="y"> red green blue </var>
    <var id="z"> red green blue </var>
  </variables>   
  <constraints>
    <intension id="c1"> ne(w,x) </intension>
    <intension id="c2"> ne(w,y) </intension>
    <intension id="c3"> ne(w,z) </intension>
    <intension id="c4"> ne(x,z) </intension>
    <intension id="c5"> ne(y,z) </intension>
  </constraints>
  <agents>
    <agent id="a1">
      <vars> w </vars>
      <ctrs> c1 c2 c3 </ctrs>
      <comm> a2 a3 a4 </comm> 
    </agent>
    <agent id="a2">
      <vars> x </vars>
      <ctrs> c1 c4 </ctrs>
      <comm> a1 a4 </comm> 
    </agent>
    <agent id="a3">
      <vars> y </vars>
      <ctrs> c2 c5 </ctrs>
      <comm> a1 a4 </comm> 
    </agent>
    <agent id="a4">
      <vars> z </vars>
      <ctrs> c3 c4 c5 </ctrs>
      <comm> a1 a2 a3 </comm> 
    </agent>
  </agents>
</instance>
